; benchmark generated from python API
(set-info :status unknown)
(declare-fun x_days () (_ BitVec 32))
(declare-fun y_days () (_ BitVec 32))
(assert
 (bvsle (_ bv4294930771 32) x_days))
(assert
 (bvsge (_ bv36523 32) x_days))
(assert
 (bvsle (_ bv4294930771 32) y_days))
(assert
 (bvsge (_ bv36523 32) y_days))
(assert
 (= x_days (_ bv7990 32)))
(assert
 (let ((?x2440 (bvadd x_days (_ bv730179 32))))
 (let ((?x5670 (bvsmod ?x2440 (_ bv146097 32))))
 (let ((?x4457 (bvsdiv ?x5670 (_ bv36524 32))))
 (let ((?x5116 (ite (bvsle (_ bv4 32) ?x4457) (_ bv3 32) ?x4457)))
 (let ((?x5760 (bvsub ?x5670 (bvmul ?x5116 (_ bv36524 32)))))
 (let ((?x1522 (bvsmod ?x5760 (_ bv1461 32))))
 (let ((?x4730 (bvsdiv ?x1522 (_ bv365 32))))
 (let ((?x847 (ite (bvsle (_ bv4 32) ?x4730) (_ bv3 32) ?x4730)))
 (let ((?x1290 (bvadd (bvadd (bvmul (bvsdiv ?x2440 (_ bv146097 32)) (_ bv400 32)) (bvmul ?x5116 (_ bv100 32))) (bvmul (bvsdiv ?x5760 (_ bv1461 32)) (_ bv4 32)))))
 (let ((?x3921 (bvadd (bvadd ?x1290 ?x847) (_ bv1 32))))
 (let (($x1820 (or (and (= (bvsmod ?x3921 (_ bv4 32)) (_ bv0 32)) (and (distinct (bvsmod ?x3921 (_ bv100 32)) (_ bv0 32)) true)) (= (bvsmod ?x3921 (_ bv400 32)) (_ bv0 32)))))
 (let ((?x4749 (bvsub ?x1522 (bvmul ?x847 (_ bv365 32)))))
 (let ((?x4542 (ite $x1820 (_ bv31 32) (_ bv31 32))))
 (let (($x4678 (bvsge ?x4749 ?x4542)))
 (let ((?x4154 (ite $x4678 (bvadd (bvsub ?x4749 ?x4542) (_ bv1 32)) (bvadd (bvsub ?x4749 (ite $x1820 (_ bv0 32) (_ bv0 32))) (_ bv1 32)))))
 (let ((?x2630 (ite $x1820 (_ bv60 32) (_ bv59 32))))
 (let (($x1311 (bvsge ?x4749 ?x2630)))
 (let ((?x5802 (ite $x1820 (_ bv91 32) (_ bv90 32))))
 (let (($x4847 (bvsge ?x4749 ?x5802)))
 (let ((?x3827 (ite $x4847 (bvadd (bvsub ?x4749 ?x5802) (_ bv1 32)) (ite $x1311 (bvadd (bvsub ?x4749 ?x2630) (_ bv1 32)) ?x4154))))
 (let ((?x5310 (ite $x1820 (_ bv121 32) (_ bv120 32))))
 (let (($x4731 (bvsge ?x4749 ?x5310)))
 (let ((?x3698 (ite $x1820 (_ bv152 32) (_ bv151 32))))
 (let (($x1467 (bvsge ?x4749 ?x3698)))
 (let ((?x1783 (ite $x1467 (bvadd (bvsub ?x4749 ?x3698) (_ bv1 32)) (ite $x4731 (bvadd (bvsub ?x4749 ?x5310) (_ bv1 32)) ?x3827))))
 (let ((?x4178 (ite $x1820 (_ bv182 32) (_ bv181 32))))
 (let (($x1479 (bvsge ?x4749 ?x4178)))
 (let ((?x2858 (ite $x1820 (_ bv213 32) (_ bv212 32))))
 (let (($x5247 (bvsge ?x4749 ?x2858)))
 (let ((?x603 (ite $x5247 (bvadd (bvsub ?x4749 ?x2858) (_ bv1 32)) (ite $x1479 (bvadd (bvsub ?x4749 ?x4178) (_ bv1 32)) ?x1783))))
 (let ((?x6080 (ite $x1820 (_ bv244 32) (_ bv243 32))))
 (let (($x5017 (bvsge ?x4749 ?x6080)))
 (let ((?x1185 (ite $x1820 (_ bv274 32) (_ bv273 32))))
 (let (($x4231 (bvsge ?x4749 ?x1185)))
 (let ((?x5218 (ite $x4231 (bvadd (bvsub ?x4749 ?x1185) (_ bv1 32)) (ite $x5017 (bvadd (bvsub ?x4749 ?x6080) (_ bv1 32)) ?x603))))
 (let ((?x2162 (ite $x1820 (_ bv305 32) (_ bv304 32))))
 (let (($x4598 (bvsge ?x4749 ?x2162)))
 (let ((?x2752 (ite $x1820 (_ bv335 32) (_ bv334 32))))
 (let (($x4784 (bvsge ?x4749 ?x2752)))
 (let ((?x1756 (ite $x4784 (bvadd (bvsub ?x4749 ?x2752) (_ bv1 32)) (ite $x4598 (bvadd (bvsub ?x4749 ?x2162) (_ bv1 32)) ?x5218))))
 (let ((?x4912 (ite $x1467 (_ bv6 32) (ite $x4731 (_ bv5 32) (ite $x4847 (_ bv4 32) (ite $x1311 (_ bv3 32) (ite $x4678 (_ bv2 32) (_ bv1 32))))))))
 (let ((?x4883 (ite $x4598 (_ bv11 32) (ite $x4231 (_ bv10 32) (ite $x5017 (_ bv9 32) (ite $x5247 (_ bv8 32) (ite $x1479 (_ bv7 32) ?x4912)))))))
 (let ((?x2445 (bvadd (ite $x4784 (_ bv12 32) ?x4883) (bvadd (bvmul (_ bv0 32) (_ bv12 32)) (_ bv13 32)))))
 (let ((?x1248 (bvsub (ite (bvuge ?x2445 (_ bv2147483648 32)) (bvsub ?x2445 (_ bv0 32)) ?x2445) (_ bv1 32))))
 (let ((?x5950 (bvsmod ?x1248 (_ bv12 32))))
 (let ((?x5925 (bvadd ?x5950 (_ bv1 32))))
 (let ((?x5307 (ite (or (= ?x5925 (_ bv4 32)) (= ?x5925 (_ bv6 32)) (= ?x5925 (_ bv9 32)) (= ?x5925 (_ bv11 32))) (_ bv30 32) (_ bv31 32))))
 (let ((?x3023 (bvsdiv ?x1248 (_ bv12 32))))
 (let ((?x4511 (ite (and (bvuge ?x1248 (_ bv2147483648 32)) (and (distinct (_ bv0 32) ?x5950) true)) (bvsub ?x3023 (_ bv1 32)) ?x3023)))
 (let ((?x1490 (bvadd ?x3921 (bvadd (_ bv0 32) ?x4511))))
 (let (($x3906 (or (and (= (bvsmod ?x1490 (_ bv4 32)) (_ bv0 32)) (and (distinct (bvsmod ?x1490 (_ bv100 32)) (_ bv0 32)) true)) (= (bvsmod ?x1490 (_ bv400 32)) (_ bv0 32)))))
 (let ((?x1210 (ite (= ?x5925 (_ bv2 32)) (ite $x3906 (_ bv29 32) (_ bv28 32)) ?x5307)))
 (let ((?x4004 (ite (bvsgt (_ bv1 32) ?x1756) (_ bv1 32) (ite (bvsgt ?x1756 ?x1210) ?x1210 ?x1756))))
 (let ((?x3837 (ite (bvsgt (_ bv1 32) ?x4004) (_ bv1 32) (ite (bvsgt ?x4004 ?x1210) ?x1210 ?x4004))))
 (let ((?x2127 (ite (= (_ bv2 32) ?x5925) (ite $x3906 (_ bv31 32) (_ bv31 32)) (ite (= (_ bv1 32) ?x5925) (ite $x3906 (_ bv0 32) (_ bv0 32)) (_ bv0 32)))))
 (let ((?x3075 (ite (= (_ bv4 32) ?x5925) (ite $x3906 (_ bv91 32) (_ bv90 32)) (ite (= (_ bv3 32) ?x5925) (ite $x3906 (_ bv60 32) (_ bv59 32)) ?x2127))))
 (let ((?x5049 (ite (= (_ bv6 32) ?x5925) (ite $x3906 (_ bv152 32) (_ bv151 32)) (ite (= (_ bv5 32) ?x5925) (ite $x3906 (_ bv121 32) (_ bv120 32)) ?x3075))))
 (let ((?x5472 (ite (= (_ bv8 32) ?x5925) (ite $x3906 (_ bv213 32) (_ bv212 32)) (ite (= (_ bv7 32) ?x5925) (ite $x3906 (_ bv182 32) (_ bv181 32)) ?x5049))))
 (let ((?x3222 (ite (= (_ bv10 32) ?x5925) (ite $x3906 (_ bv274 32) (_ bv273 32)) (ite (= (_ bv9 32) ?x5925) (ite $x3906 (_ bv244 32) (_ bv243 32)) ?x5472))))
 (let ((?x5106 (ite (= (_ bv12 32) ?x5925) (ite $x3906 (_ bv335 32) (_ bv334 32)) (ite (= (_ bv11 32) ?x5925) (ite $x3906 (_ bv305 32) (_ bv304 32)) ?x3222))))
 (let ((?x5973 (bvadd (bvmul (_ bv365 32) (bvsub ?x1490 (_ bv1 32))) (bvsdiv (bvsub ?x1490 (_ bv1 32)) (_ bv4 32)))))
 (let ((?x2277 (bvadd (bvsub ?x5973 (bvsdiv (bvsub ?x1490 (_ bv1 32)) (_ bv100 32))) (bvsdiv (bvsub ?x1490 (_ bv1 32)) (_ bv400 32)))))
 (let ((?x1159 (bvadd (bvadd (bvsub (bvadd (bvadd ?x2277 ?x5106) (bvsub ?x3837 (_ bv1 32))) (_ bv730179 32)) (_ bv40 32)) (_ bv730179 32))))
 (let ((?x4365 (bvsmod ?x1159 (_ bv146097 32))))
 (let ((?x5453 (bvsdiv ?x4365 (_ bv36524 32))))
 (let ((?x3274 (ite (bvsle (_ bv4 32) ?x5453) (_ bv3 32) ?x5453)))
 (let ((?x3299 (bvsub ?x4365 (bvmul ?x3274 (_ bv36524 32)))))
 (let ((?x2853 (bvsmod ?x3299 (_ bv1461 32))))
 (let ((?x4053 (bvsdiv ?x2853 (_ bv365 32))))
 (let ((?x5984 (ite (bvsle (_ bv4 32) ?x4053) (_ bv3 32) ?x4053)))
 (let ((?x3867 (bvadd (bvadd (bvmul (bvsdiv ?x1159 (_ bv146097 32)) (_ bv400 32)) (bvmul ?x3274 (_ bv100 32))) (bvmul (bvsdiv ?x3299 (_ bv1461 32)) (_ bv4 32)))))
 (let ((?x552 (bvadd (bvadd ?x3867 ?x5984) (_ bv1 32))))
 (let (($x1498 (or (and (= (bvsmod ?x552 (_ bv4 32)) (_ bv0 32)) (and (distinct (bvsmod ?x552 (_ bv100 32)) (_ bv0 32)) true)) (= (bvsmod ?x552 (_ bv400 32)) (_ bv0 32)))))
 (let ((?x511 (bvsub ?x2853 (bvmul ?x5984 (_ bv365 32)))))
 (let ((?x2177 (ite $x1498 (_ bv31 32) (_ bv31 32))))
 (let (($x2358 (bvsge ?x511 ?x2177)))
 (let ((?x3452 (ite $x2358 (bvadd (bvsub ?x511 ?x2177) (_ bv1 32)) (bvadd (bvsub ?x511 (ite $x1498 (_ bv0 32) (_ bv0 32))) (_ bv1 32)))))
 (let ((?x5078 (ite $x1498 (_ bv60 32) (_ bv59 32))))
 (let (($x1901 (bvsge ?x511 ?x5078)))
 (let ((?x1942 (ite $x1498 (_ bv91 32) (_ bv90 32))))
 (let (($x789 (bvsge ?x511 ?x1942)))
 (let ((?x1940 (ite $x789 (bvadd (bvsub ?x511 ?x1942) (_ bv1 32)) (ite $x1901 (bvadd (bvsub ?x511 ?x5078) (_ bv1 32)) ?x3452))))
 (let ((?x3430 (ite $x1498 (_ bv121 32) (_ bv120 32))))
 (let (($x3125 (bvsge ?x511 ?x3430)))
 (let ((?x2094 (ite $x1498 (_ bv152 32) (_ bv151 32))))
 (let (($x3972 (bvsge ?x511 ?x2094)))
 (let ((?x4943 (ite $x3972 (bvadd (bvsub ?x511 ?x2094) (_ bv1 32)) (ite $x3125 (bvadd (bvsub ?x511 ?x3430) (_ bv1 32)) ?x1940))))
 (let ((?x3379 (ite $x1498 (_ bv182 32) (_ bv181 32))))
 (let (($x3187 (bvsge ?x511 ?x3379)))
 (let ((?x1640 (ite $x1498 (_ bv213 32) (_ bv212 32))))
 (let (($x2069 (bvsge ?x511 ?x1640)))
 (let ((?x4892 (ite $x2069 (bvadd (bvsub ?x511 ?x1640) (_ bv1 32)) (ite $x3187 (bvadd (bvsub ?x511 ?x3379) (_ bv1 32)) ?x4943))))
 (let ((?x5311 (ite $x1498 (_ bv244 32) (_ bv243 32))))
 (let (($x453 (bvsge ?x511 ?x5311)))
 (let ((?x3643 (ite $x1498 (_ bv274 32) (_ bv273 32))))
 (let (($x2677 (bvsge ?x511 ?x3643)))
 (let ((?x4005 (ite $x2677 (bvadd (bvsub ?x511 ?x3643) (_ bv1 32)) (ite $x453 (bvadd (bvsub ?x511 ?x5311) (_ bv1 32)) ?x4892))))
 (let ((?x2370 (ite $x1498 (_ bv305 32) (_ bv304 32))))
 (let (($x1703 (bvsge ?x511 ?x2370)))
 (let ((?x2873 (ite $x1498 (_ bv335 32) (_ bv334 32))))
 (let (($x5444 (bvsge ?x511 ?x2873)))
 (let ((?x4463 (ite $x5444 (bvadd (bvsub ?x511 ?x2873) (_ bv1 32)) (ite $x1703 (bvadd (bvsub ?x511 ?x2370) (_ bv1 32)) ?x4005))))
 (let (($x1638 (= (_ bv40 32) (_ bv0 32))))
 (let (($x1165 (and (= (bvsmod (ite $x1638 ?x1490 ?x552) (_ bv4 32)) (_ bv0 32)) (and (distinct (bvsmod (ite $x1638 ?x1490 ?x552) (_ bv100 32)) (_ bv0 32)) true))))
 (let (($x4083 (or $x1165 (= (bvsmod (ite $x1638 ?x1490 ?x552) (_ bv400 32)) (_ bv0 32)))))
 (let ((?x4170 (ite $x3972 (_ bv6 32) (ite $x3125 (_ bv5 32) (ite $x789 (_ bv4 32) (ite $x1901 (_ bv3 32) (ite $x2358 (_ bv2 32) (_ bv1 32))))))))
 (let ((?x931 (ite $x1703 (_ bv11 32) (ite $x2677 (_ bv10 32) (ite $x453 (_ bv9 32) (ite $x2069 (_ bv8 32) (ite $x3187 (_ bv7 32) ?x4170)))))))
 (let ((?x4500 (ite $x5444 (_ bv12 32) ?x931)))
 (let ((?x4300 (ite $x1638 ?x5925 ?x4500)))
 (let ((?x1655 (ite (= (_ bv2 32) ?x4300) (ite $x4083 (_ bv31 32) (_ bv31 32)) (ite (= (_ bv1 32) ?x4300) (ite $x4083 (_ bv0 32) (_ bv0 32)) (_ bv0 32)))))
 (let ((?x2101 (ite (= (_ bv4 32) ?x4300) (ite $x4083 (_ bv91 32) (_ bv90 32)) (ite (= (_ bv3 32) ?x4300) (ite $x4083 (_ bv60 32) (_ bv59 32)) ?x1655))))
 (let ((?x5037 (ite (= (_ bv6 32) ?x4300) (ite $x4083 (_ bv152 32) (_ bv151 32)) (ite (= (_ bv5 32) ?x4300) (ite $x4083 (_ bv121 32) (_ bv120 32)) ?x2101))))
 (let ((?x4881 (ite (= (_ bv8 32) ?x4300) (ite $x4083 (_ bv213 32) (_ bv212 32)) (ite (= (_ bv7 32) ?x4300) (ite $x4083 (_ bv182 32) (_ bv181 32)) ?x5037))))
 (let ((?x3086 (ite (= (_ bv10 32) ?x4300) (ite $x4083 (_ bv274 32) (_ bv273 32)) (ite (= (_ bv9 32) ?x4300) (ite $x4083 (_ bv244 32) (_ bv243 32)) ?x4881))))
 (let ((?x2812 (ite (= (_ bv12 32) ?x4300) (ite $x4083 (_ bv335 32) (_ bv334 32)) (ite (= (_ bv11 32) ?x4300) (ite $x4083 (_ bv305 32) (_ bv304 32)) ?x3086))))
 (let ((?x2062 (bvadd (bvmul (_ bv365 32) (bvsub (ite $x1638 ?x1490 ?x552) (_ bv1 32))) (bvsdiv (bvsub (ite $x1638 ?x1490 ?x552) (_ bv1 32)) (_ bv4 32)))))
 (let ((?x5766 (bvadd (bvsub ?x2062 (bvsdiv (bvsub (ite $x1638 ?x1490 ?x552) (_ bv1 32)) (_ bv100 32))) (bvsdiv (bvsub (ite $x1638 ?x1490 ?x552) (_ bv1 32)) (_ bv400 32)))))
 (let ((?x585 (bvsub (bvadd (bvadd ?x5766 ?x2812) (bvsub (ite $x1638 ?x3837 ?x4463) (_ bv1 32))) (_ bv730179 32))))
 (= y_days ?x585))))))))))))))))))))))))))))))))))))))))))))))))))))))))))))))))))))))))))))))))))))))))))))))))))))))))))))))))))))))))
(assert
 (not (= y_days (_ bv8395 32))))
(check-sat)
